100
128
15
28
14
3
23
32
36
14
45
60
26
2
27
29
1
28
12
26
21
24
13
31
20
35
30
30
3
1
27
10
33
45
2
56
4
8
14
12
50
55
7
46
39
64
14
60
55
14
47
2
24
48
57
35
37
46
7
31
46
30
2
49
1
33
4
32
13
38
64
56
57
13
37
56
45
5
61
44
56
39
7
48
28
5
2
35
41
9
1
42
33
53
2
50
6
43
63
64
34
16